id: 554
name: scfxm1-2r-256
group: meszaros/stochlp
method: 2

Gurobi 7.0.2 (linux64, Matlab) logging started Mon Mar 26 10:11:27 2018


Gurobi 7.0.2 (linux64) logging started Mon Mar 26 10:11:27 2018

Optimize a model with 37980 rows, 57714 columns and 213159 nonzeros
Coefficient statistics:
  Matrix range     [1e-03, 6e+01]
  Objective range  [4e-03, 1e+01]
  Bounds range     [0e+00, 0e+00]
  RHS range        [8e-01, 1e+03]
Presolve removed 13855 rows and 13848 columns
Presolve time: 0.08s
Presolved: 24125 rows, 43866 columns, 163110 nonzeros

Ordering time: 0.03s

Barrier statistics:
 Dense cols : 54
 AA' NZ     : 1.609e+05
 Factor NZ  : 4.730e+05 (roughly 30 MBytes of memory)
 Factor Ops : 1.499e+07 (less than 1 second per iteration)
 Threads    : 1

                  Objective                Residual
Iter       Primal          Dual         Primal    Dual     Compl     Time
   0   1.49747710e+05 -2.95190506e+06  7.12e+03 4.00e+00  5.44e+03     0s
   1   9.07756123e+04 -5.57872337e+06  3.50e+03 2.05e+03  3.23e+03     0s
   2   8.11284319e+04 -5.98883473e+06  3.05e+03 1.52e+03  2.77e+03     0s
   3   5.24303978e+04 -6.26910035e+06  1.97e+03 4.06e+02  1.71e+03     0s
   4   4.86597336e+04 -6.32689824e+06  1.82e+03 4.89e+02  1.56e+03     0s
   5   4.86311582e+04 -6.32735491e+06  1.83e+03 4.89e+02  1.56e+03     0s
   6   2.93758957e+04 -8.25732497e+06  9.14e+02 5.12e+02  8.96e+02     0s
   7   2.94580275e+04 -8.26070258e+06  9.14e+02 5.10e+02  8.96e+02     0s
   8   2.60430473e+04 -8.50654470e+06  7.35e+02 2.72e+03  8.03e+02     0s
   9   2.25381457e+04 -7.65463288e+06  5.58e+02 2.38e+03  6.13e+02     0s
  10   2.03661611e+04 -7.39817968e+06  4.93e+02 2.22e+03  5.47e+02     0s
  11   1.89397214e+04 -7.22883548e+06  4.54e+02 2.10e+03  5.08e+02     0s
  12   1.64946514e+04 -6.85524189e+06  3.82e+02 1.89e+03  4.37e+02     0s
  13   1.56038862e+04 -6.60333242e+06  3.18e+02 1.73e+03  3.77e+02     0s
  14   1.36884863e+04 -4.26215952e+06  2.18e+02 8.67e+02  2.23e+02     0s
  15   1.13307809e+04 -3.10951326e+06  1.01e+02 3.79e+02  1.16e+02     1s
  16   1.11906076e+04 -2.25671159e+06  8.63e+01 2.57e+02  8.66e+01     1s
  17   8.92600604e+03 -1.03837946e+06  3.13e+01 9.13e+01  3.10e+01     1s
  18   7.51012110e+03 -8.98370075e+05  2.29e+01 7.54e+01  2.46e+01     1s
  19   5.82957814e+03 -4.14703021e+05  1.53e+01 2.53e+01  1.08e+01     1s
  20   5.62471913e+03 -1.87990439e+05  1.37e+01 8.06e+00  5.13e+00     1s
  21   4.30255098e+03 -4.05582896e+04  2.25e+00 9.83e-01  9.29e-01     1s
  22   4.98993371e+03 -4.89341374e+03  1.65e-01 1.19e-01  1.90e-01     1s
  23   4.85139495e+03 -4.55811730e+03  1.49e-01 1.14e-01  1.80e-01     1s
  24   4.40506441e+03 -3.13822002e+03  9.45e-02 9.25e-02  1.44e-01     1s
  25   3.93855750e+03  4.77823544e+02  5.10e-03 5.12e-02  6.59e-02     1s
  26   3.90164364e+03  9.27499839e+02  3.67e-03 3.80e-02  5.66e-02     1s
  27   3.79080628e+03  1.83260547e+03  1.41e-03 1.79e-02  3.73e-02     1s
  28   3.67008924e+03  2.14848595e+03  1.10e-03 8.83e-03  2.89e-02     1s
  29   3.48876193e+03  2.45869482e+03  7.51e-04 6.34e-03  1.96e-02     1s
  30   3.16253892e+03  2.51419828e+03  3.62e-04 5.64e-03  1.23e-02     1s
  31   3.04936537e+03  2.70168595e+03  1.65e-04 2.53e-03  6.61e-03     1s
  32   3.04713493e+03  2.75165453e+03  1.63e-04 1.91e-03  5.62e-03     1s
  33   2.99526520e+03  2.74938636e+03  1.10e-04 1.82e-03  4.68e-03     1s
  34   2.93798616e+03  2.83049603e+03  4.79e-05 6.50e-04  2.04e-03     1s
  35   2.91089119e+03  2.86240701e+03  2.00e-05 2.08e-04  9.22e-04     1s
  36   2.91190426e+03  2.86895040e+03  1.64e-05 1.57e-04  8.17e-04     1s
  37   2.90511595e+03  2.88596105e+03  1.04e-05 4.05e-05  3.64e-04     1s
  38   2.89552898e+03  2.88883041e+03  2.86e-07 2.75e-05  1.27e-04     1s
  39   2.89223848e+03  2.88911154e+03  3.67e-08 1.21e-06  5.94e-05     1s
  40   2.89177938e+03  2.89163152e+03  1.51e-08 3.68e-08  2.81e-06     1s
  41   2.89170774e+03  2.89170552e+03  3.79e-10 7.85e-12  4.22e-08     1s
  42   2.89170611e+03  2.89170611e+03  2.42e-10 2.18e-12  3.06e-13     1s

Barrier solved model in 42 iterations and 1.12 seconds
Optimal objective 2.89170611e+03

Crossover log...

       0 DPushes remaining with DInf 7.8408310e+01                 1s

    2737 PPushes remaining with PInf 0.0000000e+00                 1s
       0 PPushes remaining with PInf 0.0000000e+00                 1s

  Push phase complete: Pinf 0.0000000e+00, Dinf 9.6767286e+01      1s

Iteration    Objective       Primal Inf.    Dual Inf.      Time
    4783    2.8917061e+03   0.000000e+00   9.676729e+01      1s
    5887    2.8917061e+03   0.000000e+00   0.000000e+00      2s

Solved in 5887 iterations and 1.64 seconds
Optimal objective  2.891706114e+03
status: OPTIMAL
